30
600
1 25 20
2 80 50
3 153 70
4 54 30
5 78 10
6 25 20
7 80 50
8 153 70
9 54 30
10 78 10
11 78 10
12 25 20
13 80 50
14 153 70
15 54 3
16 80 50
17 153 70
18 54 30
19 78 10
20 78 10
21 78 10
22 25 20
23 80 50
24 153 70
25 54 3
26 25 20
27 80 50
28 153 70
29 54 30
30 78 10